p edge 121 1980
e 1 13 1
e 1 25 4
e 1 37 1
e 1 49 1
e 1 61 6
e 1 73 4
e 1 85 6
e 1 97 8
e 1 109 5
e 1 121 9
e 1 2 1
e 1 3 4
e 1 4 7
e 1 5 7
e 1 6 2
e 1 7 5
e 1 8 1
e 1 9 4
e 1 10 7
e 1 11 2
e 1 12 10
e 1 23 3
e 1 34 8
e 1 45 9
e 1 56 10
e 1 67 3
e 1 78 7
e 1 89 8
e 1 100 1
e 1 111 10
e 2 14 2
e 2 26 3
e 2 38 5
e 2 50 5
e 2 62 6
e 2 74 1
e 2 86 4
e 2 98 4
e 2 110 4
e 2 12 2
e 2 3 10
e 2 4 4
e 2 5 5
e 2 6 10
e 2 7 3
e 2 8 6
e 2 9 6
e 2 10 1
e 2 11 1
e 2 13 5
e 2 24 5
e 2 35 8
e 2 46 5
e 2 57 3
e 2 68 7
e 2 79 5
e 2 90 5
e 2 101 4
e 2 112 10
e 3 15 1
e 3 27 9
e 3 39 7
e 3 51 2
e 3 63 10
e 3 75 7
e 3 87 9
e 3 99 4
e 3 13 7
e 3 23 10
e 3 4 3
e 3 5 4
e 3 6 10
e 3 7 10
e 3 8 1
e 3 9 3
e 3 10 7
e 3 11 10
e 3 14 8
e 3 25 3
e 3 36 3
e 3 47 7
e 3 58 9
e 3 69 10
e 3 80 3
e 3 91 3
e 3 102 6
e 3 113 5
e 4 16 1
e 4 28 3
e 4 40 9
e 4 52 5
e 4 64 7
e 4 76 4
e 4 88 1
e 4 14 2
e 4 24 3
e 4 34 4
e 4 5 2
e 4 6 4
e 4 7 7
e 4 8 4
e 4 9 2
e 4 10 2
e 4 11 6
e 4 15 6
e 4 26 2
e 4 37 5
e 4 48 9
e 4 59 5
e 4 70 4
e 4 81 1
e 4 92 9
e 4 103 3
e 4 114 7
e 5 17 9
e 5 29 1
e 5 41 3
e 5 53 2
e 5 65 3
e 5 77 2
e 5 15 5
e 5 25 8
e 5 35 3
e 5 45 2
e 5 6 10
e 5 7 7
e 5 8 2
e 5 9 8
e 5 10 7
e 5 11 2
e 5 16 8
e 5 27 1
e 5 38 9
e 5 49 8
e 5 60 1
e 5 71 10
e 5 82 3
e 5 93 10
e 5 104 9
e 5 115 10
e 6 18 9
e 6 30 2
e 6 42 7
e 6 54 9
e 6 66 10
e 6 16 6
e 6 26 7
e 6 36 3
e 6 46 4
e 6 56 10
e 6 7 7
e 6 8 6
e 6 9 2
e 6 10 6
e 6 11 8
e 6 17 7
e 6 28 3
e 6 39 7
e 6 50 10
e 6 61 1
e 6 72 5
e 6 83 3
e 6 94 7
e 6 105 8
e 6 116 10
e 7 19 8
e 7 31 7
e 7 43 7
e 7 55 3
e 7 17 10
e 7 27 2
e 7 37 1
e 7 47 2
e 7 57 7
e 7 67 3
e 7 8 10
e 7 9 9
e 7 10 3
e 7 11 7
e 7 18 1
e 7 29 3
e 7 40 1
e 7 51 5
e 7 62 5
e 7 73 5
e 7 84 10
e 7 95 4
e 7 106 8
e 7 117 10
e 8 20 7
e 8 32 9
e 8 44 10
e 8 18 6
e 8 28 3
e 8 38 4
e 8 48 6
e 8 58 9
e 8 68 7
e 8 78 10
e 8 9 9
e 8 10 4
e 8 11 4
e 8 19 10
e 8 30 4
e 8 41 10
e 8 52 2
e 8 63 6
e 8 74 3
e 8 85 2
e 8 96 6
e 8 107 2
e 8 118 8
e 9 21 9
e 9 33 8
e 9 19 7
e 9 29 5
e 9 39 4
e 9 49 7
e 9 59 6
e 9 69 4
e 9 79 5
e 9 89 6
e 9 10 6
e 9 11 10
e 9 20 7
e 9 31 10
e 9 42 2
e 9 53 5
e 9 64 3
e 9 75 3
e 9 86 1
e 9 97 7
e 9 108 2
e 9 119 5
e 10 22 9
e 10 20 9
e 10 30 5
e 10 40 4
e 10 50 4
e 10 60 7
e 10 70 8
e 10 80 3
e 10 90 5
e 10 100 2
e 10 11 4
e 10 21 2
e 10 32 4
e 10 43 9
e 10 54 3
e 10 65 4
e 10 76 9
e 10 87 7
e 10 98 6
e 10 109 2
e 10 120 10
e 11 21 9
e 11 31 6
e 11 41 10
e 11 51 10
e 11 61 3
e 11 71 4
e 11 81 7
e 11 91 6
e 11 101 3
e 11 111 3
e 11 22 1
e 11 33 3
e 11 44 10
e 11 55 3
e 11 66 9
e 11 77 6
e 11 88 10
e 11 99 1
e 11 110 8
e 11 121 10
e 12 24 2
e 12 36 3
e 12 48 6
e 12 60 4
e 12 72 5
e 12 84 9
e 12 96 9
e 12 108 7
e 12 120 5
e 12 13 8
e 12 14 4
e 12 15 7
e 12 16 7
e 12 17 6
e 12 18 9
e 12 19 9
e 12 20 3
e 12 21 8
e 12 22 5
e 12 23 5
e 12 34 6
e 12 45 3
e 12 56 1
e 12 67 7
e 12 78 4
e 12 89 9
e 12 100 3
e 12 111 1
e 13 25 10
e 13 37 3
e 13 49 8
e 13 61 7
e 13 73 3
e 13 85 7
e 13 97 5
e 13 109 3
e 13 121 4
e 13 23 4
e 13 14 1
e 13 15 6
e 13 16 1
e 13 17 6
e 13 18 9
e 13 19 4
e 13 20 7
e 13 21 3
e 13 22 1
e 13 24 7
e 13 35 5
e 13 46 2
e 13 57 7
e 13 68 8
e 13 79 10
e 13 90 2
e 13 101 10
e 13 112 4
e 14 26 6
e 14 38 7
e 14 50 6
e 14 62 5
e 14 74 5
e 14 86 9
e 14 98 10
e 14 110 4
e 14 24 2
e 14 34 4
e 14 15 6
e 14 16 1
e 14 17 1
e 14 18 10
e 14 19 8
e 14 20 2
e 14 21 4
e 14 22 10
e 14 25 10
e 14 36 10
e 14 47 7
e 14 58 10
e 14 69 1
e 14 80 5
e 14 91 8
e 14 102 8
e 14 113 8
e 15 27 8
e 15 39 10
e 15 51 2
e 15 63 4
e 15 75 7
e 15 87 1
e 15 99 5
e 15 25 9
e 15 35 10
e 15 45 4
e 15 16 4
e 15 17 5
e 15 18 1
e 15 19 4
e 15 20 10
e 15 21 2
e 15 22 5
e 15 26 7
e 15 37 5
e 15 48 10
e 15 59 9
e 15 70 8
e 15 81 6
e 15 92 9
e 15 103 2
e 15 114 2
e 16 28 3
e 16 40 6
e 16 52 2
e 16 64 10
e 16 76 5
e 16 88 5
e 16 26 5
e 16 36 6
e 16 46 9
e 16 56 6
e 16 17 3
e 16 18 1
e 16 19 10
e 16 20 7
e 16 21 8
e 16 22 9
e 16 27 9
e 16 38 7
e 16 49 2
e 16 60 7
e 16 71 6
e 16 82 4
e 16 93 10
e 16 104 8
e 16 115 2
e 17 29 5
e 17 41 1
e 17 53 10
e 17 65 7
e 17 77 9
e 17 27 6
e 17 37 2
e 17 47 10
e 17 57 5
e 17 67 7
e 17 18 6
e 17 19 9
e 17 20 7
e 17 21 3
e 17 22 2
e 17 28 6
e 17 39 7
e 17 50 6
e 17 61 7
e 17 72 5
e 17 83 3
e 17 94 1
e 17 105 6
e 17 116 4
e 18 30 2
e 18 42 1
e 18 54 6
e 18 66 1
e 18 28 4
e 18 38 8
e 18 48 2
e 18 58 2
e 18 68 10
e 18 78 2
e 18 19 2
e 18 20 4
e 18 21 6
e 18 22 1
e 18 29 1
e 18 40 6
e 18 51 4
e 18 62 4
e 18 73 3
e 18 84 5
e 18 95 1
e 18 106 6
e 18 117 9
e 19 31 1
e 19 43 6
e 19 55 5
e 19 29 5
e 19 39 9
e 19 49 7
e 19 59 1
e 19 69 7
e 19 79 5
e 19 89 7
e 19 20 5
e 19 21 9
e 19 22 5
e 19 30 3
e 19 41 1
e 19 52 10
e 19 63 1
e 19 74 5
e 19 85 7
e 19 96 5
e 19 107 3
e 19 118 9
e 20 32 10
e 20 44 9
e 20 30 10
e 20 40 4
e 20 50 4
e 20 60 3
e 20 70 4
e 20 80 7
e 20 90 10
e 20 100 2
e 20 21 6
e 20 22 7
e 20 31 1
e 20 42 3
e 20 53 4
e 20 64 4
e 20 75 7
e 20 86 7
e 20 97 4
e 20 108 3
e 20 119 8
e 21 33 3
e 21 31 1
e 21 41 7
e 21 51 1
e 21 61 7
e 21 71 8
e 21 81 1
e 21 91 4
e 21 101 4
e 21 111 3
e 21 22 4
e 21 32 9
e 21 43 6
e 21 54 9
e 21 65 10
e 21 76 2
e 21 87 7
e 21 98 3
e 21 109 2
e 21 120 2
e 22 32 3
e 22 42 8
e 22 52 2
e 22 62 2
e 22 72 1
e 22 82 10
e 22 92 8
e 22 102 9
e 22 112 1
e 22 33 10
e 22 44 5
e 22 55 9
e 22 66 3
e 22 77 8
e 22 88 4
e 22 99 5
e 22 110 10
e 22 121 2
e 23 35 5
e 23 47 8
e 23 59 7
e 23 71 4
e 23 83 7
e 23 95 3
e 23 107 3
e 23 119 4
e 23 24 2
e 23 25 10
e 23 26 3
e 23 27 4
e 23 28 7
e 23 29 2
e 23 30 4
e 23 31 8
e 23 32 7
e 23 33 7
e 23 34 9
e 23 45 10
e 23 56 6
e 23 67 4
e 23 78 10
e 23 89 8
e 23 100 9
e 23 111 6
e 24 36 9
e 24 48 8
e 24 60 7
e 24 72 4
e 24 84 10
e 24 96 3
e 24 108 9
e 24 120 8
e 24 34 7
e 24 25 8
e 24 26 6
e 24 27 3
e 24 28 5
e 24 29 3
e 24 30 8
e 24 31 9
e 24 32 7
e 24 33 1
e 24 35 10
e 24 46 5
e 24 57 8
e 24 68 6
e 24 79 7
e 24 90 10
e 24 101 1
e 24 112 3
e 25 37 9
e 25 49 8
e 25 61 3
e 25 73 10
e 25 85 4
e 25 97 8
e 25 109 2
e 25 121 2
e 25 35 1
e 25 45 4
e 25 26 4
e 25 27 3
e 25 28 3
e 25 29 4
e 25 30 3
e 25 31 8
e 25 32 3
e 25 33 1
e 25 36 1
e 25 47 8
e 25 58 7
e 25 69 10
e 25 80 4
e 25 91 1
e 25 102 7
e 25 113 1
e 26 38 6
e 26 50 1
e 26 62 7
e 26 74 9
e 26 86 8
e 26 98 8
e 26 110 4
e 26 36 1
e 26 46 7
e 26 56 4
e 26 27 7
e 26 28 9
e 26 29 7
e 26 30 9
e 26 31 3
e 26 32 4
e 26 33 9
e 26 37 8
e 26 48 6
e 26 59 2
e 26 70 10
e 26 81 8
e 26 92 6
e 26 103 1
e 26 114 5
e 27 39 5
e 27 51 9
e 27 63 8
e 27 75 2
e 27 87 2
e 27 99 7
e 27 37 6
e 27 47 6
e 27 57 8
e 27 67 1
e 27 28 8
e 27 29 7
e 27 30 10
e 27 31 7
e 27 32 4
e 27 33 7
e 27 38 10
e 27 49 10
e 27 60 2
e 27 71 6
e 27 82 7
e 27 93 7
e 27 104 5
e 27 115 10
e 28 40 8
e 28 52 8
e 28 64 5
e 28 76 5
e 28 88 1
e 28 38 7
e 28 48 3
e 28 58 2
e 28 68 10
e 28 78 10
e 28 29 2
e 28 30 2
e 28 31 8
e 28 32 6
e 28 33 10
e 28 39 1
e 28 50 8
e 28 61 1
e 28 72 3
e 28 83 2
e 28 94 6
e 28 105 7
e 28 116 6
e 29 41 10
e 29 53 7
e 29 65 2
e 29 77 10
e 29 39 7
e 29 49 6
e 29 59 9
e 29 69 9
e 29 79 6
e 29 89 7
e 29 30 5
e 29 31 9
e 29 32 8
e 29 33 10
e 29 40 9
e 29 51 1
e 29 62 7
e 29 73 9
e 29 84 2
e 29 95 2
e 29 106 1
e 29 117 8
e 30 42 8
e 30 54 4
e 30 66 10
e 30 40 10
e 30 50 9
e 30 60 2
e 30 70 9
e 30 80 5
e 30 90 2
e 30 100 3
e 30 31 10
e 30 32 8
e 30 33 1
e 30 41 8
e 30 52 9
e 30 63 8
e 30 74 2
e 30 85 1
e 30 96 4
e 30 107 3
e 30 118 10
e 31 43 2
e 31 55 5
e 31 41 1
e 31 51 10
e 31 61 2
e 31 71 2
e 31 81 2
e 31 91 10
e 31 101 5
e 31 111 6
e 31 32 6
e 31 33 2
e 31 42 8
e 31 53 5
e 31 64 6
e 31 75 7
e 31 86 9
e 31 97 2
e 31 108 3
e 31 119 9
e 32 44 5
e 32 42 2
e 32 52 3
e 32 62 9
e 32 72 6
e 32 82 10
e 32 92 5
e 32 102 4
e 32 112 1
e 32 33 5
e 32 43 6
e 32 54 6
e 32 65 9
e 32 76 10
e 32 87 7
e 32 98 1
e 32 109 5
e 32 120 2
e 33 43 4
e 33 53 10
e 33 63 9
e 33 73 6
e 33 83 6
e 33 93 1
e 33 103 1
e 33 113 4
e 33 44 1
e 33 55 3
e 33 66 3
e 33 77 9
e 33 88 4
e 33 99 1
e 33 110 3
e 33 121 2
e 34 46 2
e 34 58 6
e 34 70 8
e 34 82 7
e 34 94 6
e 34 106 4
e 34 118 8
e 34 35 7
e 34 36 6
e 34 37 5
e 34 38 7
e 34 39 8
e 34 40 6
e 34 41 3
e 34 42 6
e 34 43 6
e 34 44 6
e 34 45 4
e 34 56 2
e 34 67 4
e 34 78 2
e 34 89 5
e 34 100 8
e 34 111 8
e 35 47 7
e 35 59 2
e 35 71 8
e 35 83 6
e 35 95 9
e 35 107 8
e 35 119 4
e 35 45 1
e 35 36 6
e 35 37 10
e 35 38 1
e 35 39 3
e 35 40 6
e 35 41 7
e 35 42 5
e 35 43 1
e 35 44 4
e 35 46 7
e 35 57 1
e 35 68 2
e 35 79 1
e 35 90 1
e 35 101 9
e 35 112 2
e 36 48 3
e 36 60 7
e 36 72 7
e 36 84 5
e 36 96 1
e 36 108 7
e 36 120 3
e 36 46 6
e 36 56 6
e 36 37 9
e 36 38 5
e 36 39 2
e 36 40 10
e 36 41 4
e 36 42 7
e 36 43 7
e 36 44 10
e 36 47 5
e 36 58 1
e 36 69 10
e 36 80 6
e 36 91 3
e 36 102 7
e 36 113 3
e 37 49 6
e 37 61 10
e 37 73 2
e 37 85 1
e 37 97 6
e 37 109 7
e 37 121 10
e 37 47 10
e 37 57 1
e 37 67 10
e 37 38 4
e 37 39 1
e 37 40 6
e 37 41 5
e 37 42 9
e 37 43 4
e 37 44 8
e 37 48 2
e 37 59 10
e 37 70 4
e 37 81 2
e 37 92 3
e 37 103 2
e 37 114 7
e 38 50 7
e 38 62 2
e 38 74 3
e 38 86 9
e 38 98 6
e 38 110 5
e 38 48 3
e 38 58 2
e 38 68 1
e 38 78 4
e 38 39 4
e 38 40 4
e 38 41 7
e 38 42 7
e 38 43 6
e 38 44 5
e 38 49 8
e 38 60 4
e 38 71 3
e 38 82 9
e 38 93 4
e 38 104 5
e 38 115 9
e 39 51 9
e 39 63 6
e 39 75 3
e 39 87 2
e 39 99 4
e 39 49 5
e 39 59 8
e 39 69 5
e 39 79 3
e 39 89 2
e 39 40 6
e 39 41 10
e 39 42 7
e 39 43 7
e 39 44 4
e 39 50 10
e 39 61 3
e 39 72 9
e 39 83 5
e 39 94 8
e 39 105 1
e 39 116 6
e 40 52 3
e 40 64 1
e 40 76 1
e 40 88 9
e 40 50 1
e 40 60 10
e 40 70 2
e 40 80 9
e 40 90 1
e 40 100 10
e 40 41 4
e 40 42 3
e 40 43 3
e 40 44 10
e 40 51 9
e 40 62 2
e 40 73 4
e 40 84 3
e 40 95 10
e 40 106 8
e 40 117 7
e 41 53 8
e 41 65 6
e 41 77 8
e 41 51 1
e 41 61 5
e 41 71 5
e 41 81 9
e 41 91 1
e 41 101 10
e 41 111 2
e 41 42 8
e 41 43 2
e 41 44 8
e 41 52 8
e 41 63 5
e 41 74 4
e 41 85 1
e 41 96 9
e 41 107 4
e 41 118 3
e 42 54 5
e 42 66 10
e 42 52 1
e 42 62 8
e 42 72 6
e 42 82 6
e 42 92 8
e 42 102 4
e 42 112 5
e 42 43 3
e 42 44 3
e 42 53 2
e 42 64 6
e 42 75 4
e 42 86 6
e 42 97 3
e 42 108 9
e 42 119 9
e 43 55 5
e 43 53 9
e 43 63 10
e 43 73 6
e 43 83 9
e 43 93 10
e 43 103 10
e 43 113 4
e 43 44 8
e 43 54 2
e 43 65 5
e 43 76 9
e 43 87 7
e 43 98 10
e 43 109 3
e 43 120 3
e 44 54 7
e 44 64 5
e 44 74 10
e 44 84 7
e 44 94 2
e 44 104 4
e 44 114 3
e 44 55 8
e 44 66 4
e 44 77 9
e 44 88 3
e 44 99 1
e 44 110 8
e 44 121 6
e 45 57 7
e 45 69 3
e 45 81 6
e 45 93 3
e 45 105 2
e 45 117 7
e 45 46 4
e 45 47 8
e 45 48 3
e 45 49 2
e 45 50 2
e 45 51 10
e 45 52 3
e 45 53 3
e 45 54 3
e 45 55 1
e 45 56 2
e 45 67 2
e 45 78 4
e 45 89 3
e 45 100 10
e 45 111 6
e 46 58 2
e 46 70 8
e 46 82 5
e 46 94 4
e 46 106 10
e 46 118 2
e 46 56 9
e 46 47 9
e 46 48 4
e 46 49 6
e 46 50 6
e 46 51 8
e 46 52 1
e 46 53 5
e 46 54 8
e 46 55 8
e 46 57 9
e 46 68 9
e 46 79 5
e 46 90 1
e 46 101 8
e 46 112 8
e 47 59 3
e 47 71 5
e 47 83 2
e 47 95 8
e 47 107 5
e 47 119 5
e 47 57 10
e 47 67 9
e 47 48 8
e 47 49 5
e 47 50 9
e 47 51 8
e 47 52 2
e 47 53 5
e 47 54 1
e 47 55 3
e 47 58 9
e 47 69 9
e 47 80 10
e 47 91 3
e 47 102 9
e 47 113 5
e 48 60 6
e 48 72 5
e 48 84 10
e 48 96 2
e 48 108 7
e 48 120 9
e 48 58 9
e 48 68 10
e 48 78 6
e 48 49 9
e 48 50 8
e 48 51 2
e 48 52 3
e 48 53 9
e 48 54 10
e 48 55 6
e 48 59 2
e 48 70 1
e 48 81 6
e 48 92 2
e 48 103 6
e 48 114 2
e 49 61 9
e 49 73 5
e 49 85 1
e 49 97 3
e 49 109 9
e 49 121 8
e 49 59 3
e 49 69 7
e 49 79 6
e 49 89 6
e 49 50 6
e 49 51 7
e 49 52 4
e 49 53 1
e 49 54 6
e 49 55 6
e 49 60 8
e 49 71 10
e 49 82 6
e 49 93 2
e 49 104 5
e 49 115 3
e 50 62 9
e 50 74 4
e 50 86 10
e 50 98 9
e 50 110 10
e 50 60 4
e 50 70 6
e 50 80 4
e 50 90 9
e 50 100 8
e 50 51 2
e 50 52 4
e 50 53 8
e 50 54 3
e 50 55 2
e 50 61 2
e 50 72 5
e 50 83 5
e 50 94 1
e 50 105 3
e 50 116 10
e 51 63 10
e 51 75 5
e 51 87 8
e 51 99 6
e 51 61 5
e 51 71 10
e 51 81 9
e 51 91 4
e 51 101 6
e 51 111 2
e 51 52 5
e 51 53 8
e 51 54 7
e 51 55 5
e 51 62 3
e 51 73 3
e 51 84 7
e 51 95 2
e 51 106 2
e 51 117 8
e 52 64 2
e 52 76 1
e 52 88 8
e 52 62 7
e 52 72 5
e 52 82 2
e 52 92 3
e 52 102 9
e 52 112 2
e 52 53 1
e 52 54 6
e 52 55 6
e 52 63 6
e 52 74 4
e 52 85 5
e 52 96 1
e 52 107 7
e 52 118 7
e 53 65 10
e 53 77 6
e 53 63 4
e 53 73 1
e 53 83 4
e 53 93 3
e 53 103 2
e 53 113 8
e 53 54 5
e 53 55 9
e 53 64 6
e 53 75 5
e 53 86 5
e 53 97 5
e 53 108 8
e 53 119 3
e 54 66 4
e 54 64 5
e 54 74 5
e 54 84 1
e 54 94 3
e 54 104 10
e 54 114 3
e 54 55 6
e 54 65 1
e 54 76 5
e 54 87 7
e 54 98 3
e 54 109 8
e 54 120 5
e 55 65 7
e 55 75 3
e 55 85 5
e 55 95 10
e 55 105 10
e 55 115 4
e 55 66 7
e 55 77 3
e 55 88 2
e 55 99 4
e 55 110 6
e 55 121 4
e 56 68 10
e 56 80 4
e 56 92 6
e 56 104 4
e 56 116 10
e 56 57 3
e 56 58 7
e 56 59 8
e 56 60 10
e 56 61 5
e 56 62 5
e 56 63 7
e 56 64 2
e 56 65 7
e 56 66 8
e 56 67 5
e 56 78 5
e 56 89 1
e 56 100 9
e 56 111 9
e 57 69 3
e 57 81 2
e 57 93 10
e 57 105 9
e 57 117 1
e 57 67 7
e 57 58 5
e 57 59 2
e 57 60 10
e 57 61 2
e 57 62 2
e 57 63 9
e 57 64 8
e 57 65 1
e 57 66 5
e 57 68 1
e 57 79 1
e 57 90 1
e 57 101 7
e 57 112 6
e 58 70 9
e 58 82 2
e 58 94 4
e 58 106 1
e 58 118 3
e 58 68 9
e 58 78 2
e 58 59 2
e 58 60 9
e 58 61 2
e 58 62 8
e 58 63 10
e 58 64 4
e 58 65 9
e 58 66 6
e 58 69 7
e 58 80 4
e 58 91 9
e 58 102 1
e 58 113 9
e 59 71 3
e 59 83 3
e 59 95 3
e 59 107 6
e 59 119 3
e 59 69 6
e 59 79 5
e 59 89 8
e 59 60 6
e 59 61 5
e 59 62 1
e 59 63 4
e 59 64 4
e 59 65 7
e 59 66 9
e 59 70 7
e 59 81 3
e 59 92 10
e 59 103 3
e 59 114 5
e 60 72 8
e 60 84 2
e 60 96 9
e 60 108 10
e 60 120 6
e 60 70 7
e 60 80 9
e 60 90 6
e 60 100 4
e 60 61 7
e 60 62 5
e 60 63 9
e 60 64 7
e 60 65 1
e 60 66 5
e 60 71 3
e 60 82 8
e 60 93 8
e 60 104 10
e 60 115 5
e 61 73 4
e 61 85 2
e 61 97 5
e 61 109 2
e 61 121 8
e 61 71 2
e 61 81 6
e 61 91 7
e 61 101 5
e 61 111 2
e 61 62 6
e 61 63 6
e 61 64 8
e 61 65 10
e 61 66 5
e 61 72 5
e 61 83 9
e 61 94 8
e 61 105 2
e 61 116 1
e 62 74 1
e 62 86 4
e 62 98 10
e 62 110 5
e 62 72 10
e 62 82 3
e 62 92 4
e 62 102 8
e 62 112 2
e 62 63 1
e 62 64 1
e 62 65 7
e 62 66 10
e 62 73 9
e 62 84 6
e 62 95 10
e 62 106 8
e 62 117 5
e 63 75 9
e 63 87 7
e 63 99 9
e 63 73 9
e 63 83 9
e 63 93 8
e 63 103 8
e 63 113 5
e 63 64 10
e 63 65 1
e 63 66 9
e 63 74 10
e 63 85 4
e 63 96 8
e 63 107 1
e 63 118 5
e 64 76 6
e 64 88 10
e 64 74 10
e 64 84 6
e 64 94 2
e 64 104 2
e 64 114 3
e 64 65 10
e 64 66 9
e 64 75 9
e 64 86 4
e 64 97 3
e 64 108 5
e 64 119 2
e 65 77 7
e 65 75 3
e 65 85 3
e 65 95 9
e 65 105 6
e 65 115 8
e 65 66 2
e 65 76 3
e 65 87 9
e 65 98 1
e 65 109 5
e 65 120 10
e 66 76 1
e 66 86 5
e 66 96 7
e 66 106 1
e 66 116 9
e 66 77 10
e 66 88 7
e 66 99 10
e 66 110 5
e 66 121 10
e 67 79 10
e 67 91 5
e 67 103 3
e 67 115 2
e 67 68 1
e 67 69 9
e 67 70 4
e 67 71 3
e 67 72 6
e 67 73 3
e 67 74 4
e 67 75 4
e 67 76 8
e 67 77 10
e 67 78 5
e 67 89 3
e 67 100 8
e 67 111 5
e 68 80 9
e 68 92 5
e 68 104 7
e 68 116 1
e 68 78 4
e 68 69 10
e 68 70 7
e 68 71 4
e 68 72 5
e 68 73 8
e 68 74 2
e 68 75 1
e 68 76 5
e 68 77 8
e 68 79 1
e 68 90 7
e 68 101 2
e 68 112 2
e 69 81 8
e 69 93 3
e 69 105 1
e 69 117 9
e 69 79 8
e 69 89 7
e 69 70 4
e 69 71 7
e 69 72 9
e 69 73 2
e 69 74 3
e 69 75 1
e 69 76 5
e 69 77 8
e 69 80 2
e 69 91 9
e 69 102 8
e 69 113 10
e 70 82 8
e 70 94 6
e 70 106 7
e 70 118 10
e 70 80 6
e 70 90 2
e 70 100 3
e 70 71 6
e 70 72 8
e 70 73 1
e 70 74 3
e 70 75 2
e 70 76 5
e 70 77 1
e 70 81 8
e 70 92 8
e 70 103 9
e 70 114 9
e 71 83 1
e 71 95 7
e 71 107 7
e 71 119 4
e 71 81 5
e 71 91 6
e 71 101 8
e 71 111 4
e 71 72 3
e 71 73 3
e 71 74 1
e 71 75 5
e 71 76 6
e 71 77 1
e 71 82 9
e 71 93 3
e 71 104 8
e 71 115 10
e 72 84 2
e 72 96 1
e 72 108 9
e 72 120 8
e 72 82 7
e 72 92 8
e 72 102 1
e 72 112 3
e 72 73 8
e 72 74 9
e 72 75 5
e 72 76 7
e 72 77 8
e 72 83 1
e 72 94 5
e 72 105 6
e 72 116 1
e 73 85 7
e 73 97 8
e 73 109 4
e 73 121 10
e 73 83 9
e 73 93 1
e 73 103 3
e 73 113 1
e 73 74 7
e 73 75 7
e 73 76 8
e 73 77 5
e 73 84 5
e 73 95 4
e 73 106 6
e 73 117 7
e 74 86 5
e 74 98 6
e 74 110 2
e 74 84 7
e 74 94 1
e 74 104 6
e 74 114 3
e 74 75 7
e 74 76 9
e 74 77 4
e 74 85 5
e 74 96 2
e 74 107 3
e 74 118 1
e 75 87 3
e 75 99 10
e 75 85 1
e 75 95 7
e 75 105 3
e 75 115 5
e 75 76 7
e 75 77 8
e 75 86 7
e 75 97 5
e 75 108 6
e 75 119 1
e 76 88 9
e 76 86 6
e 76 96 3
e 76 106 4
e 76 116 1
e 76 77 7
e 76 87 4
e 76 98 8
e 76 109 2
e 76 120 5
e 77 87 7
e 77 97 10
e 77 107 10
e 77 117 4
e 77 88 6
e 77 99 10
e 77 110 3
e 77 121 2
e 78 90 10
e 78 102 3
e 78 114 7
e 78 79 3
e 78 80 8
e 78 81 10
e 78 82 8
e 78 83 10
e 78 84 1
e 78 85 6
e 78 86 3
e 78 87 4
e 78 88 8
e 78 89 8
e 78 100 4
e 78 111 1
e 79 91 10
e 79 103 5
e 79 115 5
e 79 89 8
e 79 80 7
e 79 81 10
e 79 82 9
e 79 83 4
e 79 84 6
e 79 85 10
e 79 86 5
e 79 87 5
e 79 88 4
e 79 90 4
e 79 101 1
e 79 112 5
e 80 92 4
e 80 104 8
e 80 116 8
e 80 90 3
e 80 100 7
e 80 81 5
e 80 82 8
e 80 83 7
e 80 84 2
e 80 85 4
e 80 86 9
e 80 87 9
e 80 88 6
e 80 91 2
e 80 102 7
e 80 113 8
e 81 93 1
e 81 105 3
e 81 117 8
e 81 91 6
e 81 101 5
e 81 111 8
e 81 82 1
e 81 83 10
e 81 84 3
e 81 85 7
e 81 86 1
e 81 87 6
e 81 88 10
e 81 92 3
e 81 103 10
e 81 114 8
e 82 94 5
e 82 106 1
e 82 118 5
e 82 92 9
e 82 102 3
e 82 112 9
e 82 83 10
e 82 84 1
e 82 85 7
e 82 86 3
e 82 87 8
e 82 88 6
e 82 93 2
e 82 104 8
e 82 115 8
e 83 95 6
e 83 107 8
e 83 119 10
e 83 93 6
e 83 103 7
e 83 113 9
e 83 84 6
e 83 85 8
e 83 86 5
e 83 87 7
e 83 88 6
e 83 94 4
e 83 105 4
e 83 116 7
e 84 96 3
e 84 108 10
e 84 120 1
e 84 94 7
e 84 104 8
e 84 114 6
e 84 85 4
e 84 86 5
e 84 87 3
e 84 88 6
e 84 95 10
e 84 106 6
e 84 117 9
e 85 97 5
e 85 109 2
e 85 121 1
e 85 95 10
e 85 105 7
e 85 115 6
e 85 86 5
e 85 87 4
e 85 88 3
e 85 96 2
e 85 107 8
e 85 118 4
e 86 98 9
e 86 110 1
e 86 96 9
e 86 106 1
e 86 116 9
e 86 87 10
e 86 88 10
e 86 97 3
e 86 108 7
e 86 119 1
e 87 99 8
e 87 97 3
e 87 107 5
e 87 117 4
e 87 88 7
e 87 98 8
e 87 109 7
e 87 120 7
e 88 98 10
e 88 108 9
e 88 118 8
e 88 99 10
e 88 110 2
e 88 121 10
e 89 101 1
e 89 113 8
e 89 90 1
e 89 91 5
e 89 92 6
e 89 93 6
e 89 94 10
e 89 95 3
e 89 96 4
e 89 97 6
e 89 98 4
e 89 99 4
e 89 100 7
e 89 111 9
e 90 102 4
e 90 114 3
e 90 100 8
e 90 91 4
e 90 92 2
e 90 93 3
e 90 94 3
e 90 95 6
e 90 96 2
e 90 97 7
e 90 98 6
e 90 99 3
e 90 101 9
e 90 112 2
e 91 103 1
e 91 115 4
e 91 101 10
e 91 111 2
e 91 92 8
e 91 93 10
e 91 94 6
e 91 95 3
e 91 96 3
e 91 97 3
e 91 98 10
e 91 99 2
e 91 102 1
e 91 113 7
e 92 104 4
e 92 116 1
e 92 102 9
e 92 112 9
e 92 93 10
e 92 94 7
e 92 95 1
e 92 96 10
e 92 97 6
e 92 98 4
e 92 99 6
e 92 103 4
e 92 114 3
e 93 105 10
e 93 117 5
e 93 103 10
e 93 113 6
e 93 94 8
e 93 95 5
e 93 96 6
e 93 97 5
e 93 98 8
e 93 99 8
e 93 104 4
e 93 115 10
e 94 106 9
e 94 118 6
e 94 104 3
e 94 114 6
e 94 95 1
e 94 96 2
e 94 97 10
e 94 98 1
e 94 99 6
e 94 105 9
e 94 116 8
e 95 107 8
e 95 119 8
e 95 105 9
e 95 115 2
e 95 96 6
e 95 97 1
e 95 98 8
e 95 99 5
e 95 106 3
e 95 117 6
e 96 108 5
e 96 120 10
e 96 106 10
e 96 116 4
e 96 97 9
e 96 98 9
e 96 99 2
e 96 107 1
e 96 118 2
e 97 109 5
e 97 121 10
e 97 107 6
e 97 117 8
e 97 98 4
e 97 99 3
e 97 108 9
e 97 119 9
e 98 110 4
e 98 108 2
e 98 118 5
e 98 99 4
e 98 109 3
e 98 120 6
e 99 109 6
e 99 119 8
e 99 110 10
e 99 121 1
e 100 112 8
e 100 101 9
e 100 102 1
e 100 103 5
e 100 104 9
e 100 105 3
e 100 106 1
e 100 107 9
e 100 108 4
e 100 109 5
e 100 110 2
e 100 111 4
e 101 113 3
e 101 111 10
e 101 102 6
e 101 103 3
e 101 104 1
e 101 105 1
e 101 106 3
e 101 107 9
e 101 108 9
e 101 109 8
e 101 110 8
e 101 112 1
e 102 114 2
e 102 112 5
e 102 103 6
e 102 104 7
e 102 105 10
e 102 106 5
e 102 107 1
e 102 108 2
e 102 109 4
e 102 110 2
e 102 113 3
e 103 115 10
e 103 113 8
e 103 104 7
e 103 105 10
e 103 106 3
e 103 107 5
e 103 108 9
e 103 109 8
e 103 110 2
e 103 114 8
e 104 116 1
e 104 114 3
e 104 105 4
e 104 106 5
e 104 107 5
e 104 108 2
e 104 109 3
e 104 110 3
e 104 115 2
e 105 117 10
e 105 115 10
e 105 106 7
e 105 107 1
e 105 108 4
e 105 109 5
e 105 110 10
e 105 116 10
e 106 118 3
e 106 116 5
e 106 107 7
e 106 108 7
e 106 109 1
e 106 110 8
e 106 117 2
e 107 119 9
e 107 117 6
e 107 108 8
e 107 109 4
e 107 110 3
e 107 118 6
e 108 120 5
e 108 118 1
e 108 109 5
e 108 110 9
e 108 119 5
e 109 121 5
e 109 119 9
e 109 110 6
e 109 120 2
e 110 120 9
e 110 121 6
e 111 112 1
e 111 113 9
e 111 114 6
e 111 115 3
e 111 116 6
e 111 117 4
e 111 118 5
e 111 119 5
e 111 120 2
e 111 121 10
e 112 113 2
e 112 114 8
e 112 115 6
e 112 116 3
e 112 117 3
e 112 118 1
e 112 119 3
e 112 120 6
e 112 121 2
e 113 114 9
e 113 115 5
e 113 116 7
e 113 117 6
e 113 118 8
e 113 119 8
e 113 120 7
e 113 121 4
e 114 115 5
e 114 116 3
e 114 117 3
e 114 118 3
e 114 119 9
e 114 120 3
e 114 121 10
e 115 116 9
e 115 117 6
e 115 118 3
e 115 119 1
e 115 120 5
e 115 121 4
e 116 117 3
e 116 118 3
e 116 119 9
e 116 120 7
e 116 121 3
e 117 118 10
e 117 119 9
e 117 120 3
e 117 121 2
e 118 119 10
e 118 120 9
e 118 121 10
e 119 120 4
e 119 121 1
e 120 121 9